[TITLE]
Sewer Tycoon Jr. (fictional CSO network for the WWCE 2026 AI agents workshop)

[OPTIONS]
FLOW_UNITS            CMS
INFILTRATION          HORTON
FLOW_ROUTING          DYNWAVE
START_DATE            01/01/2026
START_TIME            00:00:00
REPORT_START_DATE     01/01/2026
REPORT_START_TIME     00:00:00
END_DATE              01/01/2026
END_TIME              12:00:00
REPORT_STEP           00:05:00
ROUTING_STEP          0:00:05
VARIABLE_STEP         0
ALLOW_PONDING         NO
SKIP_STEADY_STATE     NO
INERTIAL_DAMPING      PARTIAL
NORMAL_FLOW_LIMITED   BOTH
MIN_SURFAREA          1.14
MAX_TRIALS            8
HEAD_TOLERANCE        0.0015
THREADS               1

[OUTFALLS]
CSO_1  26.00  FREE  NO
CSO_2  16.00  FREE  NO
CSO_3  6.00  FREE  NO
CSO_4  -4.00  FREE  NO
WORKS  -20.00  FREE  NO
CLYDE_BYPASS  -20.00  FREE  NO

[STORAGE]
;;Name  Elev  MaxDepth  InitDepth  Shape  Coeff  Expon  Const  SurDepth  Fevap
T1  30.00  6.0  0  FUNCTIONAL  0  0  20000.0  0  0
T2  20.00  6.0  0  FUNCTIONAL  0  0  20000.0  0  0
T3  10.00  6.0  0  FUNCTIONAL  0  0  24000.0  0  0
T4  0.00  6.0  0  FUNCTIONAL  0  0  30000.0  0  0
SUMP  -10.00  3.0  0  FUNCTIONAL  0  0  200.0  0  0

[ORIFICES]
;;Name  From  To  Type  Offset  Qcoeff  Gated  CloseTime
PEN_1  T1  T2  SIDE  0  0.65  NO  0
PEN_2  T2  T3  SIDE  0  0.65  NO  0
PEN_3  T3  T4  SIDE  0  0.65  NO  0
PEN_4  T4  SUMP  SIDE  0  0.65  NO  0

[WEIRS]
;;Name  From  To  Type  CrestHt  Qcoeff  Gated  EndCon  EndCoeff  Surcharge
CSO_WEIR_1  T1  CSO_1  TRANSVERSE  5.0  1.84  NO  0  0  YES
CSO_WEIR_2  T2  CSO_2  TRANSVERSE  5.0  1.84  NO  0  0  YES
CSO_WEIR_3  T3  CSO_3  TRANSVERSE  5.0  1.84  NO  0  0  YES
CSO_WEIR_4  T4  CSO_4  TRANSVERSE  5.0  1.84  NO  0  0  YES
BYPASS_WEIR  SUMP  CLYDE_BYPASS  TRANSVERSE  1.0  1.84  NO  0  0  YES

[OUTLETS]
;;Name  From  To  Offset  Type  QTable/Qcoeff  Qexpon  Gated
TO_WORKS  SUMP  WORKS  0  TABULAR/DEPTH  WORKS_CAP  NO

[XSECTIONS]
;;Link  Shape  Geom1  Geom2  Geom3  Geom4
PEN_1  RECT_CLOSED  1.0  1.5463  0  0
PEN_2  RECT_CLOSED  1.0  1.5463  0  0
PEN_3  RECT_CLOSED  1.0  1.5463  0  0
PEN_4  RECT_CLOSED  1.0  1.7283  0  0
CSO_WEIR_1  RECT_OPEN  1.0  100  0  0
CSO_WEIR_2  RECT_OPEN  1.0  100  0  0
CSO_WEIR_3  RECT_OPEN  1.0  100  0  0
CSO_WEIR_4  RECT_OPEN  1.0  100  0  0
BYPASS_WEIR  RECT_OPEN  2.0  50  0  0

[CURVES]
WORKS_CAP  Rating  0  0
WORKS_CAP  0.2  5.5556
WORKS_CAP  3.0  5.5556

[TIMESERIES]
IN_T1  0.0000  3.05556
IN_T1  0.9999  3.05556
IN_T1  1.0000  6.38889
IN_T1  1.9999  6.38889
IN_T1  2.0000  11.94444
IN_T1  2.9999  11.94444
IN_T1  3.0000  15.55556
IN_T1  3.9999  15.55556
IN_T1  4.0000  10.55556
IN_T1  4.9999  10.55556
IN_T1  5.0000  5.83333
IN_T1  5.9999  5.83333
IN_T1  6.0000  3.33333
IN_T1  6.9999  3.33333
IN_T1  7.0000  1.66667
IN_T1  7.9999  1.66667
IN_T1  8.0000  0.83333
IN_T1  8.9999  0.83333
IN_T1  9.0000  0.27778
IN_T1  9.9999  0.27778
IN_T1  10.0000  0.27778
IN_T1  10.9999  0.27778
IN_T1  11.0000  0.00000
IN_T1  11.9999  0.00000
IN_T1  12.0000  0
IN_T2  0.0000  0.00000
IN_T2  0.9999  0.00000
IN_T2  1.0000  1.66667
IN_T2  1.9999  1.66667
IN_T2  2.0000  4.16667
IN_T2  2.9999  4.16667
IN_T2  3.0000  8.33333
IN_T2  3.9999  8.33333
IN_T2  4.0000  10.55556
IN_T2  4.9999  10.55556
IN_T2  5.0000  6.38889
IN_T2  5.9999  6.38889
IN_T2  6.0000  3.05556
IN_T2  6.9999  3.05556
IN_T2  7.0000  1.66667
IN_T2  7.9999  1.66667
IN_T2  8.0000  0.55556
IN_T2  8.9999  0.55556
IN_T2  9.0000  0.00000
IN_T2  9.9999  0.00000
IN_T2  10.0000  0.00000
IN_T2  10.9999  0.00000
IN_T2  11.0000  0.00000
IN_T2  11.9999  0.00000
IN_T2  12.0000  0
IN_T3  0.0000  0.00000
IN_T3  0.9999  0.00000
IN_T3  1.0000  0.00000
IN_T3  1.9999  0.00000
IN_T3  2.0000  1.66667
IN_T3  2.9999  1.66667
IN_T3  3.0000  4.16667
IN_T3  3.9999  4.16667
IN_T3  4.0000  8.33333
IN_T3  4.9999  8.33333
IN_T3  5.0000  10.55556
IN_T3  5.9999  10.55556
IN_T3  6.0000  6.38889
IN_T3  6.9999  6.38889
IN_T3  7.0000  3.05556
IN_T3  7.9999  3.05556
IN_T3  8.0000  1.66667
IN_T3  8.9999  1.66667
IN_T3  9.0000  0.55556
IN_T3  9.9999  0.55556
IN_T3  10.0000  0.00000
IN_T3  10.9999  0.00000
IN_T3  11.0000  0.00000
IN_T3  11.9999  0.00000
IN_T3  12.0000  0
IN_T4  0.0000  0.00000
IN_T4  0.9999  0.00000
IN_T4  1.0000  0.00000
IN_T4  1.9999  0.00000
IN_T4  2.0000  0.00000
IN_T4  2.9999  0.00000
IN_T4  3.0000  1.11111
IN_T4  3.9999  1.11111
IN_T4  4.0000  2.77778
IN_T4  4.9999  2.77778
IN_T4  5.0000  5.55556
IN_T4  5.9999  5.55556
IN_T4  6.0000  6.94444
IN_T4  6.9999  6.94444
IN_T4  7.0000  4.16667
IN_T4  7.9999  4.16667
IN_T4  8.0000  2.22222
IN_T4  8.9999  2.22222
IN_T4  9.0000  1.11111
IN_T4  9.9999  1.11111
IN_T4  10.0000  0.27778
IN_T4  10.9999  0.27778
IN_T4  11.0000  0.00000
IN_T4  11.9999  0.00000
IN_T4  12.0000  0

[INFLOWS]
;;Node  Constituent  TimeSeries  Type  Mfactor  Sfactor
T1  FLOW  IN_T1  FLOW  1.0  1.0
T2  FLOW  IN_T2  FLOW  1.0  1.0
T3  FLOW  IN_T3  FLOW  1.0  1.0
T4  FLOW  IN_T4  FLOW  1.0  1.0

[REPORT]
INPUT NO
CONTROLS NO
SUBCATCHMENTS NONE
NODES NONE
LINKS NONE

[COORDINATES]
T1  0  300
CSO_1  0  260
T2  100  200
CSO_2  100  160
T3  200  100
CSO_3  200  60
T4  300  0
CSO_4  300  -40
SUMP  400  -20
WORKS  450  -60
CLYDE_BYPASS  350  -60
